NAME: rue_15_6
TYPE: TSP
DIMENSION: 15
EDGE_WEIGHT_TYPE: EUC_2D
NODE_COORD_SECTION
1 78 68
2 66 61
3 71 33
4 11 91
5 16 68
6 73 48
7 18 37
8 35 97
9 34 44
10 88 61
11 41 87
12 45 46
13 99 16
14 41 58
15 55 95
